65 25
67 27
74 26
74 29
68 27
67 27
61 28
61 32
76 29
74 29
70 30
70 30
64 32
64 32
74 32
74 32
61 32
61 32
67 33
67 32
72 35
74 35
65 37
65 32
74 39
74 35
61 32
64 32
67 27
67 30
67 30
70 30
67 32
67 30
65 32
67 32
74 29
74 30
74 30
74 32
74 32
74 32
74 35
74 32
70 30
74 30
64 32
65 32
